100
150
100
99
98
98
98
94
93
91
91
89
87
87
87
86
86
86
85
85
84
83
83
81
81
80
78
77
77
76
76
75
75
73
73
70
69
69
65
63
63
63
62
62
62
60
59
58
57
57
55
54
53
52
51
51
50
49
49
48
47
47
44
44
42
38
37
37
32
32
32
30
30
29
28
27
27
25
25
25
23
23
23
22
22
21
20
19
17
15
14
13
13
10
9
8
6
5
4
3
2
1
